c FILE /home/rafael/Documents/HappySet/MIHS/inputs/happygen/output/graph_d_regular_k20_p0.2_v100_20241127_084127.txt
c SOURCE This is a d-regular graph formed for the happy graph colouring problem.
c DESCRIPTION It was generated using the problem generator of Rhyd Lewis
c
c GRAPH STATS
c Seed                             = 1026557576
c Number of Nodes                  = 100
c Number of colours k              = 20
c Number of pre-assignments        = 20
c Degree of all vertices           = 6
c Density                          = 0.0606061
c 
c The degrees of nodes 1 to 100, respectively, are as follows 
c [6, 6, 6, 6, 6, 6, 6, 6, 6, 6, 6, 6, 6, 6, 6, 6, 6, 6, 6, 6, 6, 6, 6, 6, 6, 6, 
c  6, 6, 6, 6, 6, 6, 6, 6, 6, 6, 6, 6, 6, 6, 6, 6, 6, 6, 6, 6, 6, 6, 6, 6, 6, 
c  6, 6, 6, 6, 6, 6, 6, 6, 6, 6, 6, 6, 6, 6, 6, 6, 6, 6, 6, 6, 6, 6, 6, 6, 6, 
c  6, 6, 6, 6, 6, 6, 6, 6, 6, 6, 6, 6, 6, 6, 6, 6, 6, 6, 6, 6, 6, 6, 6, 6] 
c  
p edge 100 300 20
e 1 26
e 1 48
e 1 67
e 1 75
e 1 86
e 1 96
e 2 12
e 2 17
e 2 18
e 2 21
e 2 35
e 2 37
e 3 10
e 3 13
e 3 31
e 3 56
e 3 69
e 3 74
e 4 8
e 4 38
e 4 42
e 4 43
e 4 44
e 4 51
e 5 12
e 5 33
e 5 47
e 5 58
e 5 60
e 5 79
e 6 13
e 6 15
e 6 31
e 6 50
e 6 68
e 6 77
e 7 23
e 7 27
e 7 40
e 7 62
e 7 63
e 7 95
e 8 41
e 8 77
e 8 85
e 8 89
e 8 100
e 9 28
e 9 50
e 9 63
e 9 68
e 9 81
e 9 95
e 10 11
e 10 23
e 10 33
e 10 62
e 10 92
e 11 14
e 11 32
e 11 88
e 11 99
e 11 100
e 12 17
e 12 25
e 12 28
e 12 44
e 13 14
e 13 48
e 13 64
e 13 93
e 14 20
e 14 54
e 14 57
e 14 72
e 15 17
e 15 25
e 15 52
e 15 61
e 15 83
e 16 27
e 16 42
e 16 64
e 16 86
e 16 96
e 16 98
e 17 31
e 17 68
e 17 71
e 18 27
e 18 30
e 18 55
e 18 80
e 18 97
e 19 24
e 19 41
e 19 58
e 19 72
e 19 82
e 19 86
e 20 21
e 20 28
e 20 29
e 20 53
e 20 60
e 21 49
e 21 65
e 21 70
e 21 77
e 22 24
e 22 53
e 22 56
e 22 73
e 22 74
e 22 81
e 23 60
e 23 71
e 23 90
e 23 99
e 24 61
e 24 62
e 24 83
e 24 84
e 25 74
e 25 85
e 25 92
e 25 94
e 26 35
e 26 65
e 26 76
e 26 89
e 26 94
e 27 56
e 27 62
e 27 72
e 28 29
e 28 44
e 28 88
e 29 35
e 29 60
e 29 67
e 29 83
e 30 36
e 30 45
e 30 46
e 30 82
e 30 97
e 31 45
e 31 68
e 31 93
e 32 36
e 32 53
e 32 71
e 32 73
e 32 80
e 33 47
e 33 50
e 33 56
e 33 58
e 34 44
e 34 69
e 34 76
e 34 87
e 34 89
e 34 98
e 35 82
e 35 83
e 35 89
e 36 38
e 36 54
e 36 61
e 36 68
e 37 39
e 37 40
e 37 58
e 37 67
e 37 91
e 38 39
e 38 54
e 38 65
e 38 97
e 39 51
e 39 58
e 39 94
e 39 98
e 40 46
e 40 62
e 40 91
e 40 94
e 41 45
e 41 46
e 41 55
e 41 82
e 42 49
e 42 79
e 42 90
e 42 98
e 43 48
e 43 78
e 43 85
e 43 87
e 43 89
e 44 66
e 44 88
e 45 75
e 45 79
e 45 87
e 46 52
e 46 66
e 46 99
e 47 49
e 47 52
e 47 72
e 47 96
e 48 77
e 48 96
e 48 99
e 49 55
e 49 74
e 49 100
e 50 58
e 50 69
e 50 98
e 51 60
e 51 75
e 51 90
e 51 95
e 52 67
e 52 76
e 52 80
e 53 63
e 53 64
e 53 92
e 54 66
e 54 91
e 54 93
e 55 83
e 55 85
e 55 100
e 56 81
e 56 88
e 57 60
e 57 61
e 57 74
e 57 78
e 57 85
e 59 63
e 59 67
e 59 78
e 59 79
e 59 84
e 59 86
e 61 78
e 61 96
e 62 81
e 63 87
e 63 92
e 64 66
e 64 82
e 64 86
e 65 75
e 65 92
e 65 99
e 66 69
e 66 91
e 67 73
e 68 71
e 69 88
e 69 93
e 70 71
e 70 75
e 70 90
e 70 91
e 70 94
e 71 76
e 72 73
e 72 76
e 73 79
e 73 91
e 74 93
e 75 84
e 76 86
e 77 88
e 77 97
e 78 80
e 78 81
e 79 81
e 80 94
e 80 96
e 82 84
e 83 84
e 84 97
e 85 95
e 87 95
e 87 98
e 89 99
e 90 95
e 90 100
e 92 100
e 93 97
n 1 13
n 2 16
n 3 19
n 6 4
n 8 12
n 14 2
n 23 10
n 24 17
n 25 15
n 29 3
n 32 7
n 34 11
n 39 1
n 42 5
n 43 9
n 52 8
n 65 18
n 88 14
n 91 6
n 97 20
